Instance Name : r103
Date : 2022-07-18
Solution
Route 1 : 51 65 71 9 66 20 32 70
Route 2 : 40 53
Route 3 : 94 95 97 87 13
Route 4 : 96 99 6
Route 5 : 83 45 84 61 85 93 59
Route 6 : 1 30 78 34 35 81 77 28
Route 7 : 52 7 62 11 63 90 10 31
Route 8 : 27 69 88 8 46 17 5 60 89
Route 9 : 36 64 49 19 47 48 82 18
Route 10 : 50 33 3 76 79 29 24 68 80 12
Route 11 : 2 22 74 72 73 58
Route 12 : 42 43 15 57 41 75 56 4 26
Route 13 : 21 39 23 67 55 25 54
Route 14 : 92 98 14 44 38 86 16 91 100 37
